s td 58 55 291
b 1 2 20 21 39 49 52 58 72 90 112 125 130 144 166 192 203 213 220 224 244 246 252 255 257 266
b 2 14 15 19 35 67 74 97 108 113 126 133 158 172 187 191 197 232 238 241 253 254 258 270 275 280
b 3 37 60 61 92 168 176 181 188 215 272 278
b 4 5 33 37 45 60 61 65 73 76 87 88 99 124 152 161 177 186 201 208 217 221 227 235 261 262 288
b 5 29 32 78 83 138 142 155 160 174 207 274 279 284 290
b 6 36 73 102 115 199 227 235 261
b 7 3 8 20 28 46 53 56 57 106 118 127 129 149 150 151 194 198 203 209 210 212 218 222 244 246 268
b 8 29 32 67 78 83 138 142 155 160 174 207 274 279 284
b 9 1 2 4 6 18 20 36 46 52 54 67 69 78 81 83 84 89 92 93 108 115 118 127 138 140 143 144 147 150 159 168 196 197 199 203 211 222 229 230 232 240 242 244 246 257 258 259 267 274 277 278 279 289
b 10 1 4 18 20 36 46 54 67 69 78 81 83 84 89 92 93 108 115 118 127 138 140 147 150 153 159 168 175 196 197 199 203 211 222 230 232 242 244 246 258 259 267 274 277 278 279 289
b 11 1 4 20 24 36 46 47 54 69 79 81 84 85 89 91 92 93 107 109 115 118 121 127 140 147 150 153 159 168 175 184 196 199 203 211 222 230 234 237 242 244 246 259 267 277 278 289
b 12 1 4 20 24 46 47 63 64 69 71 79 84 85 89 91 93 107 109 118 121 127 140 150 153 157 175 184 203 206 211 219 222 223 230 234 237 244 246 267 271 277
b 13 4 20 28 46 56 63 64 69 71 89 118 127 140 150 151 157 194 198 203 206 209 210 218 219 222 223 237 244 246 271 277
b 14 3 4 20 28 46 56 89 118 127 140 150 151 194 198 203 209 210 218 222 244 246 277
b 15 1 20 24 36 46 47 54 79 81 84 85 91 92 93 94 107 109 115 118 121 147 153 159 168 175 184 196 199 203 211 222 230 234 237 242 244 246 259 267 278 289
b 16 1 20 24 36 37 46 47 54 60 61 79 81 84 85 91 92 93 94 107 109 115 118 121 147 153 159 168 184 196 199 203 215 222 227 234 235 237 242 244 246 259 267 278 289
b 17 1 20 24 36 37 46 47 54 60 61 73 79 81 84 85 91 93 94 107 109 115 118 121 147 153 159 184 196 199 203 215 222 227 234 235 237 242 244 246 259 261 267 289
b 18 1 20 24 37 45 46 47 54 60 61 73 77 79 81 84 85 91 93 94 107 109 118 121 124 147 153 159 177 184 196 203 215 222 227 234 235 237 242 244 246 259 261 267 289
b 19 1 5 37 45 54 60 61 65 73 77 81 84 87 88 93 94 109 124 152 153 159 161 177 217 227 235 242 261 262 267
b 20 5 33 37 45 60 61 65 73 76 87 88 99 109 124 152 153 161 177 217 227 235 261 262
b 21 20 24 26 37 45 46 47 54 60 61 73 77 79 81 85 91 107 116 118 121 124 147 159 177 184 196 203 215 222 227 234 235 237 242 244 246 259 289
b 22 20 24 26 37 42 45 46 47 54 60 61 73 77 79 81 85 91 107 116 117 118 121 124 134 147 159 177 184 196 203 222 227 234 235 237 242 244 245 246 259 289
b 23 9 17 20 24 25 26 37 42 45 46 54 61 81 116 117 118 124 134 147 148 159 180 196 203 216 222 237 242 244 245 246 259 264 289
b 24 7 9 17 20 24 25 46 54 81 117 118 147 148 159 180 196 203 216 222 237 242 244 245 246 251 259 264 283 289
b 25 7 9 20 24 25 30 46 54 81 117 118 135 141 147 148 159 180 196 203 216 222 237 242 244 246 251 259 264 283 287 289
b 26 7 20 24 30 46 50 54 81 117 118 135 141 147 148 159 196 203 222 237 242 244 246 251 259 264 283 287 289
b 27 26 42 47 60 73 77 79 85 91 107 116 117 121 134 147 177 184 196 227 234 235 245 256 259 282 289
b 28 26 42 47 60 73 77 79 85 91 116 117 121 134 147 177 184 193 196 227 234 235 245 256 259 282 289
b 29 26 34 41 42 47 60 73 77 79 85 91 116 117 121 134 147 162 177 184 185 193 196 227 234 235 236 256 259 282 289
b 30 36 37 60 61 92 168 176 199 215 227 235 278
b 31 18 67 78 83 108 138 153 174 175 197 232 258 274 279 284
b 32 32 67 78 83 108 138 153 160 174 197 258 274 279 284
b 33 1 2 6 14 15 18 20 36 52 54 67 74 78 81 83 84 92 93 98 108 115 126 138 143 144 147 150 159 168 187 191 195 196 197 199 203 211 229 230 232 240 242 244 246 254 257 258 259 267 270 274 278 279 289
b 34 2 6 14 15 20 36 51 52 54 59 74 78 81 92 98 101 108 110 115 126 132 138 139 143 144 147 150 168 171 179 187 191 195 196 197 199 203 226 229 232 240 244 246 250 254 257 258 259 260 265 270 274 278 279 289
b 35 2 6 14 15 20 31 36 44 51 52 55 59 74 82 86 92 101 104 108 110 111 114 115 126 132 139 143 144 150 163 168 171 179 182 187 191 197 199 203 226 229 232 240 244 246 250 254 257 258 260 265 270 278 286 291
b 36 16 31 44 51 55 59 82 86 101 104 110 111 114 126 132 139 163 165 171 179 182 187 191 205 226 243 250 260 265 270 286 291
b 37 16 31 44 51 55 59 82 86 96 101 111 126 132 139 156 163 165 171 179 182 187 191 205 226 243 250 265 270 286 291
b 38 16 31 44 51 55 59 82 86 96 100 101 111 126 132 139 156 163 165 171 179 182 187 191 205 226 243 250 263 265 270 286
b 39 10 38 55 82 86 96 100 101 111 126 132 156 165 171 173 179 182 187 191 205 226 243 250 263 270 286
b 40 10 38 55 82 86 96 100 101 111 126 132 156 171 173 178 179 182 187 191 226 250 263 270 286
b 41 10 38 55 70 82 96 100 111 126 132 156 173 178 179 182 187 191 225 226 250 263 270
b 42 38 70 82 96 100 111 126 132 156 170 173 178 179 182 187 191 225 226 250 263 270
b 43 13 70 82 96 100 111 126 132 156 170 178 179 182 187 191 225 226 250 263 270
b 44 2 6 20 31 36 40 44 51 52 55 59 82 86 92 101 104 110 111 114 115 120 132 139 143 144 145 150 154 163 168 171 179 182 183 199 203 226 229 240 244 246 250 257 260 265 269 276 278 286 291
b 45 2 6 20 31 36 40 44 51 52 55 59 82 86 92 101 104 110 111 114 115 120 132 139 143 145 150 154 163 168 171 179 182 183 199 203 226 229 240 244 246 248 250 257 260 265 269 276 278 286 291
b 46 6 31 36 40 44 51 55 59 62 75 80 82 86 92 101 104 110 111 114 115 120 132 136 139 143 145 150 154 163 168 171 179 182 183 190 199 204 226 229 240 248 250 260 265 269 276 278 286 291
b 47 12 22 27 31 36 40 44 51 55 59 62 66 75 80 82 86 92 95 101 104 110 111 114 115 120 132 136 139 145 146 150 154 163 168 171 179 182 183 190 199 204 226 228 239 247 248 250 260 265 269 276 278 286 291
b 48 12 22 27 31 36 40 44 51 55 59 66 82 86 92 95 101 104 110 111 114 115 132 136 139 145 146 150 154 163 168 171 179 182 190 199 204 226 228 239 247 250 260 265 276 278 281 286 291
b 49 12 22 27 31 36 40 44 51 55 59 66 82 86 92 95 101 104 110 111 114 115 132 136 139 145 154 163 168 171 179 182 189 190 199 200 204 226 228 233 239 247 249 250 260 265 276 278 281 286 291
b 50 22 27 31 36 40 44 48 51 59 66 92 95 104 110 114 115 136 137 139 145 154 163 167 168 189 190 199 200 204 228 233 239 247 249 260 265 276 278 281 291
b 51 22 23 27 31 36 40 44 48 51 59 66 92 104 110 114 115 131 136 137 139 145 154 163 167 168 189 190 199 200 204 231 233 239 249 260 265 276 278 281 291
b 52 11 22 23 27 31 36 44 48 51 59 66 92 104 105 110 114 115 123 128 131 137 139 163 167 168 189 199 200 231 233 239 249 260 265 278 291
b 53 1 14 15 18 43 54 67 68 74 78 81 83 84 93 98 103 108 119 126 138 147 159 164 169 187 191 195 196 197 202 211 230 232 242 254 258 259 267 270 273 274 279 289
b 54 14 15 19 35 43 54 67 68 74 81 83 97 98 103 108 113 119 126 133 147 158 164 169 187 191 195 196 197 202 232 238 254 258 259 270 273 280 289
b 55 2 4 6 20 21 46 52 58 69 72 89 112 118 127 130 140 143 144 192 203 213 222 224 229 240 244 246 257 277
b 56 2 6 20 21 49 52 58 72 90 112 130 143 144 166 192 203 213 224 229 240 244 246 252 257
b 57 4 28 56 63 64 71 89 122 127 140 150 151 157 194 198 206 209 210 214 218 219 223 237 271 277 285
b 58 4 28 56 63 64 69 71 89 122 127 140 150 151 157 194 198 206 209 210 218 219 223 237 271 277 285
1 56
2 54
3 30
4 20
5 8
6 17
7 14
8 32
9 10
9 33
9 55
10 11
10 31
11 12
11 15
12 13
13 58
13 14
15 16
16 17
16 30
17 18
18 19
18 21
19 20
21 22
22 23
22 27
23 24
24 25
25 26
27 28
28 29
31 32
33 34
33 53
34 35
35 36
35 44
36 37
37 38
38 39
39 40
40 41
41 42
42 43
44 45
45 46
46 47
47 48
48 49
49 50
50 51
51 52
53 54
55 56
57 58
